c turning on binary mode checking
c parsing input formula with 202048 variables and 780990 clauses
c finished parsing, read 16421319 bytes from proof file
c detected empty clause; start verification via backward checking
c 12249 of 780990 clauses in core                            
c 13172 of 448807 lemmas in core using 112545 resolution steps
c 0 RAT lemmas in core; 796 redundant literals in core lemmas
s VERIFIED
c verification time: 2.194 seconds
